%chk=H2OMonomer.chk
# opt freq b3lyp/6-31+g(d) geom=connectivity

Title Card Required

0 1
 O                 -0.81453636   -0.21303258    0.00000000
 H                  0.14546364   -0.21303258    0.00000000
 H                 -1.13499095    0.69190325    0.00000000

 1 2 1.0 3 1.0
 2
 3

