%chk=H2Otrimer.chk
# opt freq b3lyp/6-31+g(d) geom=connectivity

Title Card Required

0 1
 O                  1.37833100   -0.03324800    0.11193800
 H                  1.62370000    0.86828200   -0.14713400
 H                  1.73585000   -0.61526600   -0.57588900
 O                 -1.48811700    0.03776700   -0.11703200
 H                 -1.94809300   -0.22633100    0.69387700
 H                 -0.53317000   -0.06283500    0.06989700
 O                  2.54123833    2.78818441   -0.31453042
 H                  3.50123833    2.78818441   -0.31453042
 H                  2.22078375    3.69312024   -0.31453042

 1 2 1.0 3 1.0
 2
 3
 4 5 1.0 6 1.0
 5
 6
 7 8 1.0 9 1.0
 8
 9

